
Gurobi 9.5.0 (linux64) logging started Wed Nov  8 21:39:02 2023

Set parameter LogFile to value "/lustre1/scratch/348/vsc34888/JointResearch/05.Models/06.Benchmarking/G.Representative_days_based_on_Line_Benefit_NN_OC_fy_2/RTS24_ByStages_nc90/openStarNet_RTS24_ByStages_nc90.log"
Set parameter Method to value 2
Set parameter MIPFocus to value 1
Set parameter Presolve to value 2
Set parameter RINS to value 100
Set parameter MIPGap to value 0.01
Set parameter Threads to value 36
Set parameter TimeLimit to value 604800
Set parameter IterationLimit to value 760000000
Gurobi Optimizer version 9.5.0 build v9.5.0rc5 (linux64)
Thread count: 36 physical cores, 36 logical processors, using up to 36 threads
Optimize a model with 40053 rows, 23086 columns and 110279 nonzeros
Model fingerprint: 0x49eefc9a
Variable types: 23047 continuous, 39 integer (39 binary)
Coefficient statistics:
  Matrix range     [1e-03, 2e+03]
  Objective range  [1e+00, 1e+00]
  Bounds range     [4e-04, 3e+00]
  RHS range        [4e-04, 3e+00]
Presolve removed 19533 rows and 9863 columns
Presolve time: 0.21s
Presolved: 20520 rows, 13223 columns, 71414 nonzeros
Variable types: 13184 continuous, 39 integer (39 binary)
Found heuristic solution: objective 153.2322290
Root relaxation presolved: 20520 rows, 13223 columns, 71414 nonzeros

Root barrier log...

Ordering time: 0.01s

Barrier statistics:
 Dense cols : 39
 AA' NZ     : 1.518e+05
 Factor NZ  : 5.088e+05 (roughly 18 MB of memory)
 Factor Ops : 1.602e+07 (less than 1 second per iteration)
 Threads    : 36

                  Objective                Residual
Iter       Primal          Dual         Primal    Dual     Compl     Time
   0   6.34612182e+05 -1.63381140e+08  4.57e+00 4.14e+02  1.14e+04     1s
   1   7.65937675e+04 -4.48352341e+07  4.38e-01 1.46e-08  1.49e+03     1s
   2   2.50678760e+04 -6.82900776e+06  1.31e-02 3.41e-09  1.68e+02     1s
   3   1.86602616e+04 -3.10262579e+05  1.21e-12 1.81e-10  7.88e+00     1s
   4   4.52092295e+03 -4.58611642e+04  1.39e-12 2.19e-11  1.21e+00     1s
   5   1.60028837e+03 -1.26505581e+04  6.52e-13 5.12e-12  3.41e-01     1s
   6   6.05753756e+02 -3.45422762e+03  4.65e-13 1.82e-12  9.73e-02     1s
   7   4.09557370e+02 -1.13412157e+03  3.92e-13 9.09e-13  3.70e-02     1s
   8   2.07723251e+02 -2.39542285e+02  6.00e-13 1.82e-12  1.07e-02     1s
   9   1.53819354e+02 -4.91627883e+01  4.24e-13 9.09e-13  4.86e-03     1s
  10   1.16915982e+02  4.61250152e+01  4.58e-13 1.82e-12  1.70e-03     1s
  11   1.01556234e+02  7.62947102e+01  2.24e-12 5.46e-12  6.05e-04     1s
  12   9.71360305e+01  8.60383842e+01  5.71e-12 1.82e-12  2.66e-04     1s
  13   9.48673070e+01  8.82408245e+01  1.11e-11 1.82e-12  1.59e-04     1s
  14   9.40730816e+01  9.09649199e+01  6.37e-12 9.09e-13  7.45e-05     1s
  15   9.36532275e+01  9.12610253e+01  3.66e-12 1.82e-12  5.73e-05     1s
  16   9.34038420e+01  9.17639563e+01  5.46e-12 9.09e-13  3.93e-05     1s
  17   9.33423996e+01  9.20322148e+01  5.17e-12 9.09e-13  3.14e-05     1s
  18   9.31560239e+01  9.24275360e+01  1.86e-11 9.09e-13  1.75e-05     1s
  19   9.31131935e+01  9.24899728e+01  1.78e-11 9.09e-13  1.49e-05     1s
  20   9.30731477e+01  9.27084326e+01  1.36e-11 1.82e-12  8.74e-06     1s
  21   9.30457348e+01  9.28415518e+01  1.42e-11 9.09e-13  4.89e-06     1s
  22   9.30114012e+01  9.29340089e+01  6.34e-11 1.82e-12  1.85e-06     1s
  23   9.29998871e+01  9.29414110e+01  5.90e-11 1.82e-12  1.40e-06     1s
  24   9.29876471e+01  9.29754841e+01  6.34e-11 1.82e-12  2.91e-07     1s
  25   9.29837893e+01  9.29814473e+01  2.00e-10 1.82e-12  5.61e-08     1s
  26   9.29834503e+01  9.29821165e+01  6.18e-10 1.82e-12  3.19e-08     1s
  27   9.29830426e+01  9.29829423e+01  3.24e-09 1.82e-12  2.40e-09     1s
  28   9.29829964e+01  9.29829905e+01  8.54e-10 9.09e-13  1.41e-10     1s
  29   9.29829929e+01  9.29829920e+01  2.67e-08 9.09e-13  2.04e-11     1s

Barrier solved model in 29 iterations and 1.01 seconds (0.78 work units)
Optimal objective 9.29829929e+01


Root relaxation: objective 9.298299e+01, 1627 iterations, 0.78 seconds (0.41 work units)

    Nodes    |    Current Node    |     Objective Bounds      |     Work
 Expl Unexpl |  Obj  Depth IntInf | Incumbent    BestBd   Gap | It/Node Time

     0     0   92.98299    0   12  153.23223   92.98299  39.3%     -    1s
H    0     0                     123.1300552   92.98299  24.5%     -    1s
     0     0   95.06530    0   11  123.13006   95.06530  22.8%     -    2s
H    0     0                     108.4648278   95.06530  12.4%     -    2s
     0     0   95.09127    0   11  108.46483   95.09127  12.3%     -    2s
H    0     0                     107.6313092   96.00624  10.8%     -    2s
     0     0   96.00624    0   11  107.63131   96.00624  10.8%     -    2s
     0     0   96.00935    0   11  107.63131   96.00935  10.8%     -    3s
     0     0   96.00973    0   11  107.63131   96.00973  10.8%     -    3s
     0     0   96.17075    0   10  107.63131   96.17075  10.6%     -    3s
     0     0   96.21833    0   11  107.63131   96.21833  10.6%     -    3s
     0     0   96.21923    0   11  107.63131   96.21923  10.6%     -    3s
     0     0   96.24097    0   11  107.63131   96.24097  10.6%     -    4s
     0     0   96.24222    0   11  107.63131   96.24222  10.6%     -    4s
     0     0   96.24395    0   11  107.63131   96.24395  10.6%     -    4s
     0     0   96.24398    0   11  107.63131   96.24398  10.6%     -    4s
     0     0   96.24765    0   11  107.63131   96.24765  10.6%     -    4s
H    0     0                     104.2038531   96.24765  7.64%     -    9s
     0     2   96.24765    0   11  104.20385   96.24765  7.64%     -    9s
     3     6     cutoff    2       104.20385   96.25148  7.63%   601   10s
   161    14  103.19207   11    6  104.20385  102.16876  1.95%   276   15s

Cutting planes:
  Gomory: 3
  Implied bound: 32
  MIR: 503
  Relax-and-lift: 2

Explored 198 nodes (53752 simplex iterations) in 15.24 seconds (19.80 work units)
Thread count was 36 (of 36 available processors)

Solution count 5: 104.204 107.631 108.465 ... 153.232

Optimal solution found (tolerance 1.00e-02)
Best objective 1.042038530758e+02, best bound 1.033407334573e+02, gap 0.8283%

Gurobi 9.5.0 (linux64) logging started Wed Nov  8 21:39:23 2023

Set parameter LogFile to value "/lustre1/scratch/348/vsc34888/JointResearch/05.Models/06.Benchmarking/G.Representative_days_based_on_Line_Benefit_NN_OC_fy_2/RTS24_ByStages_nc90/openStarNet_RTS24_ByStages_nc90.log"
Set parameter Method to value 2
Set parameter MIPFocus to value 1
Set parameter Presolve to value 2
Set parameter RINS to value 100
Set parameter MIPGap to value 0.01
Set parameter Threads to value 36
Set parameter TimeLimit to value 604800
Set parameter IterationLimit to value 760000000
No parameters matching 'relax_integrality' found
Gurobi Optimizer version 9.5.0 build v9.5.0rc5 (linux64)
Thread count: 36 physical cores, 36 logical processors, using up to 36 threads
Optimize a model with 40053 rows, 23047 columns and 96200 nonzeros
Model fingerprint: 0x143e3f4e
Coefficient statistics:
  Matrix range     [1e-03, 2e+03]
  Objective range  [1e+00, 1e+00]
  Bounds range     [4e-04, 3e+00]
  RHS range        [4e-04, 3e+01]
Presolve removed 31688 rows and 10773 columns
Presolve time: 0.04s
Presolved: 8365 rows, 12454 columns, 30804 nonzeros

Ordering time: 0.00s

Barrier statistics:
 AA' NZ     : 2.159e+04
 Factor NZ  : 9.193e+04 (roughly 8 MB of memory)
 Factor Ops : 1.400e+06 (less than 1 second per iteration)
 Threads    : 36

                  Objective                Residual
Iter       Primal          Dual         Primal    Dual     Compl     Time
   0   9.57764821e+05 -1.61653165e+08  1.66e+01 4.57e+01  1.77e+04     0s
   1   1.21865834e+05 -2.75376648e+07  1.74e+00 3.69e-12  1.96e+03     0s
   2   3.03140169e+04 -3.82114581e+06  9.37e-02 2.95e-12  1.94e+02     0s
   3   1.96294818e+04 -6.27970171e+05  7.37e-04 2.12e-12  3.03e+01     0s
   4   7.96781796e+03 -7.56221166e+04  1.42e-12 1.51e-12  3.91e+00     0s
   5   3.67693396e+03 -1.94347605e+04  1.30e-12 9.09e-13  1.08e+00     0s
   6   1.35660142e+03 -4.57411860e+03  1.45e-12 4.55e-13  2.77e-01     0s
   7   5.27854369e+02 -1.23329713e+03  1.95e-12 4.55e-13  8.23e-02     0s
   8   3.00108216e+02 -4.47815616e+02  1.12e-12 4.55e-13  3.50e-02     0s
   9   1.66381357e+02 -6.29082526e+01  1.87e-12 9.09e-13  1.07e-02     0s
  10   1.21850004e+02  5.93266488e+01  2.92e-12 9.09e-13  2.92e-03     0s
  11   1.10165402e+02  9.21665851e+01  6.88e-12 4.55e-13  8.42e-04     0s
  12   1.07232944e+02  9.92117679e+01  3.54e-12 9.09e-13  3.75e-04     0s
  13   1.05330619e+02  1.02313541e+02  6.40e-12 4.55e-13  1.41e-04     0s
  14   1.04544954e+02  1.03729057e+02  1.57e-11 9.09e-13  3.81e-05     0s
  15   1.04296893e+02  1.04025705e+02  2.60e-11 4.55e-13  1.27e-05     0s
  16   1.04208520e+02  1.04188664e+02  2.31e-11 9.09e-13  9.28e-07     0s
  17   1.04204063e+02  1.04201357e+02  1.84e-11 4.55e-13  1.27e-07     0s
  18   1.04203858e+02  1.04203840e+02  4.63e-11 4.55e-13  8.19e-10     0s
  19   1.04203853e+02  1.04203853e+02  1.52e-11 9.09e-13  8.19e-13     0s
  20   1.04203853e+02  1.04203853e+02  5.83e-13 9.09e-13  8.19e-16     0s

Barrier solved model in 20 iterations and 0.18 seconds (0.13 work units)
Optimal objective 1.04203853e+02

Crossover log...

    1077 DPushes remaining with DInf 0.0000000e+00                 0s
       0 DPushes remaining with DInf 0.0000000e+00                 0s

     392 PPushes remaining with PInf 0.0000000e+00                 0s
       0 PPushes remaining with PInf 0.0000000e+00                 0s

  Push phase complete: Pinf 0.0000000e+00, Dinf 3.6843773e-13      0s

Iteration    Objective       Primal Inf.    Dual Inf.      Time
     423    1.0420385e+02   0.000000e+00   0.000000e+00      0s

Use crossover to convert LP symmetric solution to basic solution...
Crossover log...

       0 DPushes remaining with DInf 0.0000000e+00                 0s

     248 PPushes remaining with PInf 0.0000000e+00                 0s
       0 PPushes remaining with PInf 0.0000000e+00                 0s

  Push phase complete: Pinf 0.0000000e+00, Dinf 4.4452215e-13      0s

Iteration    Objective       Primal Inf.    Dual Inf.      Time
     693    1.0420385e+02   0.000000e+00   0.000000e+00      0s

Solved in 693 iterations and 0.27 seconds (0.17 work units)
Optimal objective  1.042038531e+02
